Mn  F                                   
   1.00000000000000     
     4.8808754009393347    0.0000000000000000    0.0000000000000000
     0.0000000000000000    4.8808754009393347    0.0000000000000000
     0.0000000000000000    0.0000000000000000    3.2995696276923638
   Mn   F 
     2     4
Direct
  0.5000000000000000  0.5000000000000000  0.5000000000000000
  0.0000000000000000  0.0000000000000000  0.0000000000000000
  0.1954276166428883  0.8045723833571117  0.5000000000000000
  0.8045723833571117  0.1954276166428883  0.5000000000000000
  0.3045723833571117  0.3045723833571117  0.0000000000000000
  0.6954276166428883  0.6954276166428883  0.0000000000000000
 
  0.00000000E+00  0.00000000E+00  0.00000000E+00
  0.00000000E+00  0.00000000E+00  0.00000000E+00
  0.00000000E+00  0.00000000E+00  0.00000000E+00
  0.00000000E+00  0.00000000E+00  0.00000000E+00
  0.00000000E+00  0.00000000E+00  0.00000000E+00
  0.00000000E+00  0.00000000E+00  0.00000000E+00
