Mn  F                                   
   1.00000000000000     
     4.8506123387713105   -0.0000000000000000    0.0000000000000000
    -0.0000000000000000    4.8506123387713105    0.0000000000000000
     0.0000000000000000    0.0000000000000000    3.2865359983284077
   Mn   F 
     2     4
Direct
  0.5000000000000000  0.5000000000000000  0.5000000000000000
  0.0000000000000000  0.0000000000000000  0.0000000000000000
  0.1961054844640391  0.8038945155359609  0.5000000000000000
  0.8038945155359609  0.1961054844640391  0.5000000000000000
  0.3038945155359610  0.3038945155359610 -0.0000000000000000
  0.6961054844640391  0.6961054844640391  0.0000000000000000
 
  0.00000000E+00  0.00000000E+00  0.00000000E+00
  0.00000000E+00  0.00000000E+00  0.00000000E+00
  0.00000000E+00  0.00000000E+00  0.00000000E+00
  0.00000000E+00  0.00000000E+00  0.00000000E+00
  0.00000000E+00  0.00000000E+00  0.00000000E+00
  0.00000000E+00  0.00000000E+00  0.00000000E+00
