Mn  F                                   
   1.00000000000000     
     4.9550643476252549   -0.0000000000000000    0.0000000000000000
    -0.0000000000000000    4.9550643476252549    0.0000000000000000
     0.0000000000000000    0.0000000000000000    3.1994720914701267
   Mn   F 
     2     4
Direct
  0.5000000000000000  0.5000000000000000  0.5000000000000000
  0.0000000000000000 -0.0000000000000000 -0.0000000000000000
  0.1965937981832175  0.8034062018167825  0.5000000000000000
  0.8034062018167825  0.1965937981832175  0.5000000000000000
  0.3034062018167826  0.3034062018167826  0.0000000000000000
  0.6965937981832175  0.6965937981832175 -0.0000000000000000
 
  0.00000000E+00  0.00000000E+00  0.00000000E+00
  0.00000000E+00  0.00000000E+00  0.00000000E+00
  0.00000000E+00  0.00000000E+00  0.00000000E+00
  0.00000000E+00  0.00000000E+00  0.00000000E+00
  0.00000000E+00  0.00000000E+00  0.00000000E+00
  0.00000000E+00  0.00000000E+00  0.00000000E+00
