Mn  F                                   
   1.00000000000000     
     4.6588118669784091    0.0000000000000000    0.0000000000000000
     0.0000000000000000    4.6588118669784091    0.0000000000000000
     0.0000000000000000    0.0000000000000000    3.2002335220562523
   Mn   F 
     2     4
Direct
  0.5000000000000000  0.5000000000000000  0.5000000000000000
  0.0000000000000000  0.0000000000000000  0.0000000000000000
  0.1961723151413395  0.8038276848586605  0.5000000000000000
  0.8038276848586605  0.1961723151413395  0.5000000000000000
  0.3038276848586605  0.3038276848586605  0.0000000000000000
  0.6961723151413395  0.6961723151413395  0.0000000000000000
 
  0.00000000E+00  0.00000000E+00  0.00000000E+00
  0.00000000E+00  0.00000000E+00  0.00000000E+00
  0.00000000E+00  0.00000000E+00  0.00000000E+00
  0.00000000E+00  0.00000000E+00  0.00000000E+00
  0.00000000E+00  0.00000000E+00  0.00000000E+00
  0.00000000E+00  0.00000000E+00  0.00000000E+00
