Mn  F                                   
   1.00000000000000     
     4.7946465072183138    0.0000000000000000    0.0000000000000000
     0.0000000000000000    4.7946465072183138    0.0000000000000000
     0.0000000000000000    0.0000000000000000    3.2472070542824834
   Mn   F 
     2     4
Direct
  0.5000000000000000  0.5000000000000000  0.5000000000000000
  0.0000000000000000  0.0000000000000000  0.0000000000000000
  0.1959055510530803  0.8040944489469197  0.5000000000000000
  0.8040944489469197  0.1959055510530803  0.5000000000000000
  0.3040944489469197  0.3040944489469197  0.0000000000000000
  0.6959055510530803  0.6959055510530803  0.0000000000000000
 
  0.00000000E+00  0.00000000E+00  0.00000000E+00
  0.00000000E+00  0.00000000E+00  0.00000000E+00
  0.00000000E+00  0.00000000E+00  0.00000000E+00
  0.00000000E+00  0.00000000E+00  0.00000000E+00
  0.00000000E+00  0.00000000E+00  0.00000000E+00
  0.00000000E+00  0.00000000E+00  0.00000000E+00
