Mn  F                                   
   1.00000000000000     
     4.8487207946491191    0.0000000000000000    0.0000000000000000
    -0.0000000000000000    4.8487207946491191    0.0000000000000000
     0.0000000000000000    0.0000000000000000    3.2860713234425178
   Mn   F 
     2     4
Direct
  0.5000000000000000  0.5000000000000000  0.5000000000000000
  0.0000000000000000  0.0000000000000000 -0.0000000000000000
  0.1961102272429594  0.8038897727570405  0.5000000000000000
  0.8038897727570405  0.1961102272429594  0.5000000000000000
  0.3038897727570405  0.3038897727570405 -0.0000000000000000
  0.6961102272429595  0.6961102272429595  0.0000000000000000
 
  0.00000000E+00  0.00000000E+00  0.00000000E+00
  0.00000000E+00  0.00000000E+00  0.00000000E+00
  0.00000000E+00  0.00000000E+00  0.00000000E+00
  0.00000000E+00  0.00000000E+00  0.00000000E+00
  0.00000000E+00  0.00000000E+00  0.00000000E+00
  0.00000000E+00  0.00000000E+00  0.00000000E+00
