INCAR created by Atomic Simulation Environment
 ENCUT = 700.000000
 SIGMA = 0.010000
 EDIFF = 1.00e-07
 ICHARG = 11
 ISMEAR = 0
 ISYM = 0
 LDAUPRINT = 2
 LDAUTYPE = 2
 LMAXMIX = 4
 LORBIT = 11
 NBANDS = 48
 NSW = 0
 ADDGRID = .TRUE.
 LASPH = .TRUE.
 LDAU = .TRUE.
 LWAVE = .FALSE.
 LDAUL = 2 -1
 LDAUU = 0.000 0.000
 LDAUJ = 0.000 0.000
 ISPIN = 2
 MAGMOM = 1*-6.0000 1*6.0000 4*0.0000 
