Mn  F                                   
   1.00000000000000     
     4.7412509556224824   -0.0000000000000000    0.0000000000000000
     0.0000000000000000    4.7412509556224824    0.0000000000000000
     0.0000000000000000    0.0000000000000000    3.2306630482127456
   Mn   F 
     2     4
Direct
  0.5000000000000000  0.5000000000000000  0.5000000000000000
  0.0000000000000000  0.0000000000000000  0.0000000000000000
  0.1969573782214022  0.8030426217785978  0.5000000000000000
  0.8030426217785978  0.1969573782214022  0.5000000000000000
  0.3030426217785978  0.3030426217785978 -0.0000000000000000
  0.6969573782214022  0.6969573782214022  0.0000000000000000
 
  0.00000000E+00  0.00000000E+00  0.00000000E+00
  0.00000000E+00  0.00000000E+00  0.00000000E+00
  0.00000000E+00  0.00000000E+00  0.00000000E+00
  0.00000000E+00  0.00000000E+00  0.00000000E+00
  0.00000000E+00  0.00000000E+00  0.00000000E+00
  0.00000000E+00  0.00000000E+00  0.00000000E+00
