Mn  F                                   
   1.00000000000000     
     4.7995270319872025    0.0000000000000000    0.0000000000000000
     0.0000000000000000    4.7995270319872025    0.0000000000000000
     0.0000000000000000    0.0000000000000000    3.2498349099434591
   Mn   F 
     2     4
Direct
  0.5000000000000000  0.5000000000000000  0.5000000000000000
  0.0000000000000000  0.0000000000000000  0.0000000000000000
  0.1958722245253597  0.8041277754746403  0.5000000000000000
  0.8041277754746403  0.1958722245253597  0.5000000000000000
  0.3041277754746403  0.3041277754746403  0.0000000000000000
  0.6958722245253597  0.6958722245253597  0.0000000000000000
 
  0.00000000E+00  0.00000000E+00  0.00000000E+00
  0.00000000E+00  0.00000000E+00  0.00000000E+00
  0.00000000E+00  0.00000000E+00  0.00000000E+00
  0.00000000E+00  0.00000000E+00  0.00000000E+00
  0.00000000E+00  0.00000000E+00  0.00000000E+00
  0.00000000E+00  0.00000000E+00  0.00000000E+00
