Mn  F                                   
   1.00000000000000     
     4.8027929673536223    0.0000000000000000    0.0000000000000000
     0.0000000000000000    4.8027929673536223    0.0000000000000000
     0.0000000000000000    0.0000000000000000    3.2515529623978039
   Mn   F 
     2     4
Direct
  0.5000000000000000  0.5000000000000000  0.5000000000000000
  0.0000000000000000  0.0000000000000000  0.0000000000000000
  0.1958559172853726  0.8041440827146275  0.5000000000000000
  0.8041440827146275  0.1958559172853726  0.5000000000000000
  0.3041440827146273  0.3041440827146273 -0.0000000000000000
  0.6958559172853725  0.6958559172853725  0.0000000000000000
 
  0.00000000E+00  0.00000000E+00  0.00000000E+00
  0.00000000E+00  0.00000000E+00  0.00000000E+00
  0.00000000E+00  0.00000000E+00  0.00000000E+00
  0.00000000E+00  0.00000000E+00  0.00000000E+00
  0.00000000E+00  0.00000000E+00  0.00000000E+00
  0.00000000E+00  0.00000000E+00  0.00000000E+00
