Mn  F                                   
   1.00000000000000     
     4.7954970954203242    0.0000000000000000    0.0000000000000000
     0.0000000000000000    4.7954970954203242    0.0000000000000000
     0.0000000000000000    0.0000000000000000    3.2493116227539356
   Mn   F 
     2     4
Direct
  0.5000000000000000  0.5000000000000000  0.5000000000000000
  0.0000000000000000  0.0000000000000000  0.0000000000000000
  0.1959560683654260  0.8040439316345740  0.5000000000000000
  0.8040439316345740  0.1959560683654260  0.5000000000000000
  0.3040439316345740  0.3040439316345740  0.0000000000000000
  0.6959560683654260  0.6959560683654260  0.0000000000000000
 
  0.00000000E+00  0.00000000E+00  0.00000000E+00
  0.00000000E+00  0.00000000E+00  0.00000000E+00
  0.00000000E+00  0.00000000E+00  0.00000000E+00
  0.00000000E+00  0.00000000E+00  0.00000000E+00
  0.00000000E+00  0.00000000E+00  0.00000000E+00
  0.00000000E+00  0.00000000E+00  0.00000000E+00
