KPOINTS created by Atomic Simulation Environment
0
Monkhorst-Pack
1 1 2 
0 0 0
