Mn  F                                   
   1.00000000000000     
     4.8853443008053112    0.0000000000000000    0.0000000000000000
     0.0000000000000000    4.8853443008053112    0.0000000000000000
     0.0000000000000000    0.0000000000000000    3.3021607225970846
   Mn   F 
     2     4
Direct
  0.5000000000000000  0.5000000000000000  0.5000000000000000
  0.0000000000000000  0.0000000000000000  0.0000000000000000
  0.1954217614923763  0.8045782385076237  0.5000000000000000
  0.8045782385076237  0.1954217614923763  0.5000000000000000
  0.3045782385076237  0.3045782385076237  0.0000000000000000
  0.6954217614923763  0.6954217614923763  0.0000000000000000
 
  0.00000000E+00  0.00000000E+00  0.00000000E+00
  0.00000000E+00  0.00000000E+00  0.00000000E+00
  0.00000000E+00  0.00000000E+00  0.00000000E+00
  0.00000000E+00  0.00000000E+00  0.00000000E+00
  0.00000000E+00  0.00000000E+00  0.00000000E+00
  0.00000000E+00  0.00000000E+00  0.00000000E+00
