Mn  F                                   
   1.00000000000000     
     4.8496177263033209    0.0000000000000000    0.0000000000000000
     0.0000000000000000    4.8496177263033209    0.0000000000000000
     0.0000000000000000    0.0000000000000000    3.2860778177412633
   Mn   F 
     2     4
Direct
  0.5000000000000000  0.5000000000000000  0.5000000000000000
  0.0000000000000000  0.0000000000000000  0.0000000000000000
  0.1961445445964927  0.8038554554035073  0.5000000000000000
  0.8038554554035073  0.1961445445964927  0.5000000000000000
  0.3038554554035073  0.3038554554035073  0.0000000000000000
  0.6961445445964927  0.6961445445964927  0.0000000000000000
 
  0.00000000E+00  0.00000000E+00  0.00000000E+00
  0.00000000E+00  0.00000000E+00  0.00000000E+00
  0.00000000E+00  0.00000000E+00  0.00000000E+00
  0.00000000E+00  0.00000000E+00  0.00000000E+00
  0.00000000E+00  0.00000000E+00  0.00000000E+00
  0.00000000E+00  0.00000000E+00  0.00000000E+00
