Mn  F                                   
   1.00000000000000     
     4.7939751571152556    0.0000000000000000    0.0000000000000000
    -0.0000000000000000    4.7939751571152556    0.0000000000000000
     0.0000000000000000    0.0000000000000000    3.2465756614253003
   Mn   F 
     2     4
Direct
  0.5000000000000000  0.5000000000000000  0.5000000000000000
  0.0000000000000000  0.0000000000000000  0.0000000000000000
  0.1959052583964868  0.8040947416035132  0.5000000000000000
  0.8040947416035132  0.1959052583964868  0.5000000000000000
  0.3040947416035132  0.3040947416035132 -0.0000000000000000
  0.6959052583964868  0.6959052583964868  0.0000000000000000
 
  0.00000000E+00  0.00000000E+00  0.00000000E+00
  0.00000000E+00  0.00000000E+00  0.00000000E+00
  0.00000000E+00  0.00000000E+00  0.00000000E+00
  0.00000000E+00  0.00000000E+00  0.00000000E+00
  0.00000000E+00  0.00000000E+00  0.00000000E+00
  0.00000000E+00  0.00000000E+00  0.00000000E+00
