Mn  F                                   
   1.00000000000000     
     4.8867300236963258    0.0000000000000000    0.0000000000000000
     0.0000000000000000    4.8867300236963258    0.0000000000000000
     0.0000000000000000    0.0000000000000000    3.3030554036825261
   Mn   F 
     2     4
Direct
  0.5000000000000000  0.5000000000000000  0.5000000000000000
  0.0000000000000000  0.0000000000000000  0.0000000000000000
  0.1954225557069051  0.8045774442930949  0.5000000000000000
  0.8045774442930949  0.1954225557069051  0.5000000000000000
  0.3045774442930949  0.3045774442930949  0.0000000000000000
  0.6954225557069051  0.6954225557069051  0.0000000000000000
 
  0.00000000E+00  0.00000000E+00  0.00000000E+00
  0.00000000E+00  0.00000000E+00  0.00000000E+00
  0.00000000E+00  0.00000000E+00  0.00000000E+00
  0.00000000E+00  0.00000000E+00  0.00000000E+00
  0.00000000E+00  0.00000000E+00  0.00000000E+00
  0.00000000E+00  0.00000000E+00  0.00000000E+00
