Mn  F                                   
   1.00000000000000     
     4.8492193462584563   -0.0000000000000000    0.0000000000000000
     0.0000000000000000    4.8492193462584563    0.0000000000000000
     0.0000000000000000    0.0000000000000000    3.2854952485864950
   Mn   F 
     2     4
Direct
  0.5000000000000000  0.5000000000000000  0.5000000000000000
 -0.0000000000000000  0.0000000000000000  0.0000000000000000
  0.1961092734407080  0.8038907265592919  0.5000000000000000
  0.8038907265592919  0.1961092734407080  0.5000000000000000
  0.3038907265592920  0.3038907265592920 -0.0000000000000000
  0.6961092734407081  0.6961092734407081  0.0000000000000000
 
  0.00000000E+00  0.00000000E+00  0.00000000E+00
  0.00000000E+00  0.00000000E+00  0.00000000E+00
  0.00000000E+00  0.00000000E+00  0.00000000E+00
  0.00000000E+00  0.00000000E+00  0.00000000E+00
  0.00000000E+00  0.00000000E+00  0.00000000E+00
  0.00000000E+00  0.00000000E+00  0.00000000E+00
