INCAR created by Atomic Simulation Environment
 ENCUT = 500.000000
 EDIFF = 1.00e-07
 EDIFFG = -5.00e-03
 IBRION = 2
 ISIF = 3
 ISMEAR = -5
 LDAUPRINT = 2
 LDAUTYPE = 2
 LMAXMIX = 4
 LORBIT = 11
 NSW = 50
 ADDGRID = .TRUE.
 LASPH = .TRUE.
 LCHARG = .FALSE.
 LDAU = .TRUE.
 LWAVE = .FALSE.
 LDAUL = 2 -1
 LDAUU = 4.000 0.000
 LDAUJ = 0.000 0.000
 ISPIN = 2
 MAGMOM = 1*-6.0000 1*6.0000 4*0.0000 
