INCAR created by Atomic Simulation Environment
 ENCUT = 600.000000
 EDIFF = 1.00e-09
 METAGGA = SCAN
 ISMEAR = -5
 LDAUPRINT = 2
 LDAUTYPE = 2
 LMAXMIX = 4
 LORBIT = 11
 NSW = 0
 ADDGRID = .TRUE.
 LASPH = .TRUE.
 LDAU = .TRUE.
 LDAUL = 2 -1
 LDAUU = 0.000 0.000
 LDAUJ = 0.000 0.000
 ISPIN = 2
 MAGMOM = 1*-6.0000 1*6.0000 4*0.0000 


#ICHARG = 11
isym = 0

NELMDL = -10
NELM = 10
