KPOINTS created by Atomic Simulation Environment
0
Monkhorst-Pack
9 9 11 
0 0 0
