KPOINTS created by Atomic Simulation Environment
152 
Reciprocal
0.000000 0.000000 0.000000 1.0 
0.000000 0.038462 0.000000 1.0 
0.000000 0.076923 0.000000 1.0 
0.000000 0.115385 0.000000 1.0 
0.000000 0.153846 0.000000 1.0 
0.000000 0.192308 0.000000 1.0 
0.000000 0.230769 0.000000 1.0 
0.000000 0.269231 0.000000 1.0 
0.000000 0.307692 0.000000 1.0 
0.000000 0.346154 0.000000 1.0 
0.000000 0.384615 0.000000 1.0 
0.000000 0.423077 0.000000 1.0 
0.000000 0.461538 0.000000 1.0 
0.000000 0.500000 0.000000 1.0 
0.038462 0.500000 0.000000 1.0 
0.076923 0.500000 0.000000 1.0 
0.115385 0.500000 0.000000 1.0 
0.153846 0.500000 0.000000 1.0 
0.192308 0.500000 0.000000 1.0 
0.230769 0.500000 0.000000 1.0 
0.269231 0.500000 0.000000 1.0 
0.307692 0.500000 0.000000 1.0 
0.346154 0.500000 0.000000 1.0 
0.384615 0.500000 0.000000 1.0 
0.423077 0.500000 0.000000 1.0 
0.461538 0.500000 0.000000 1.0 
0.500000 0.500000 0.000000 1.0 
0.472222 0.472222 0.000000 1.0 
0.444444 0.444444 0.000000 1.0 
0.416667 0.416667 0.000000 1.0 
0.388889 0.388889 0.000000 1.0 
0.361111 0.361111 0.000000 1.0 
0.333333 0.333333 0.000000 1.0 
0.305556 0.305556 0.000000 1.0 
0.277778 0.277778 0.000000 1.0 
0.250000 0.250000 0.000000 1.0 
0.222222 0.222222 0.000000 1.0 
0.194444 0.194444 0.000000 1.0 
0.166667 0.166667 0.000000 1.0 
0.138889 0.138889 0.000000 1.0 
0.111111 0.111111 0.000000 1.0 
0.083333 0.083333 0.000000 1.0 
0.055556 0.055556 0.000000 1.0 
0.027778 0.027778 0.000000 1.0 
0.000000 0.000000 0.000000 1.0 
0.000000 0.000000 0.026316 1.0 
0.000000 0.000000 0.052632 1.0 
0.000000 0.000000 0.078947 1.0 
0.000000 0.000000 0.105263 1.0 
0.000000 0.000000 0.131579 1.0 
0.000000 0.000000 0.157895 1.0 
0.000000 0.000000 0.184211 1.0 
0.000000 0.000000 0.210526 1.0 
0.000000 0.000000 0.236842 1.0 
0.000000 0.000000 0.263158 1.0 
0.000000 0.000000 0.289474 1.0 
0.000000 0.000000 0.315789 1.0 
0.000000 0.000000 0.342105 1.0 
0.000000 0.000000 0.368421 1.0 
0.000000 0.000000 0.394737 1.0 
0.000000 0.000000 0.421053 1.0 
0.000000 0.000000 0.447368 1.0 
0.000000 0.000000 0.473684 1.0 
0.000000 0.000000 0.500000 1.0 
0.000000 0.038462 0.500000 1.0 
0.000000 0.076923 0.500000 1.0 
0.000000 0.115385 0.500000 1.0 
0.000000 0.153846 0.500000 1.0 
0.000000 0.192308 0.500000 1.0 
0.000000 0.230769 0.500000 1.0 
0.000000 0.269231 0.500000 1.0 
0.000000 0.307692 0.500000 1.0 
0.000000 0.346154 0.500000 1.0 
0.000000 0.384615 0.500000 1.0 
0.000000 0.423077 0.500000 1.0 
0.000000 0.461538 0.500000 1.0 
0.000000 0.500000 0.500000 1.0 
0.038462 0.500000 0.500000 1.0 
0.076923 0.500000 0.500000 1.0 
0.115385 0.500000 0.500000 1.0 
0.153846 0.500000 0.500000 1.0 
0.192308 0.500000 0.500000 1.0 
0.230769 0.500000 0.500000 1.0 
0.269231 0.500000 0.500000 1.0 
0.307692 0.500000 0.500000 1.0 
0.346154 0.500000 0.500000 1.0 
0.384615 0.500000 0.500000 1.0 
0.423077 0.500000 0.500000 1.0 
0.461538 0.500000 0.500000 1.0 
0.500000 0.500000 0.500000 1.0 
0.473684 0.473684 0.500000 1.0 
0.447368 0.447368 0.500000 1.0 
0.421053 0.421053 0.500000 1.0 
0.394737 0.394737 0.500000 1.0 
0.368421 0.368421 0.500000 1.0 
0.342105 0.342105 0.500000 1.0 
0.315789 0.315789 0.500000 1.0 
0.289474 0.289474 0.500000 1.0 
0.263158 0.263158 0.500000 1.0 
0.236842 0.236842 0.500000 1.0 
0.210526 0.210526 0.500000 1.0 
0.184211 0.184211 0.500000 1.0 
0.157895 0.157895 0.500000 1.0 
0.131579 0.131579 0.500000 1.0 
0.105263 0.105263 0.500000 1.0 
0.078947 0.078947 0.500000 1.0 
0.052632 0.052632 0.500000 1.0 
0.026316 0.026316 0.500000 1.0 
0.000000 0.000000 0.500000 1.0 
0.000000 0.500000 0.000000 1.0 
0.000000 0.500000 0.025000 1.0 
0.000000 0.500000 0.050000 1.0 
0.000000 0.500000 0.075000 1.0 
0.000000 0.500000 0.100000 1.0 
0.000000 0.500000 0.125000 1.0 
0.000000 0.500000 0.150000 1.0 
0.000000 0.500000 0.175000 1.0 
0.000000 0.500000 0.200000 1.0 
0.000000 0.500000 0.225000 1.0 
0.000000 0.500000 0.250000 1.0 
0.000000 0.500000 0.275000 1.0 
0.000000 0.500000 0.300000 1.0 
0.000000 0.500000 0.325000 1.0 
0.000000 0.500000 0.350000 1.0 
0.000000 0.500000 0.375000 1.0 
0.000000 0.500000 0.400000 1.0 
0.000000 0.500000 0.425000 1.0 
0.000000 0.500000 0.450000 1.0 
0.000000 0.500000 0.475000 1.0 
0.000000 0.500000 0.500000 1.0 
0.500000 0.500000 0.000000 1.0 
0.500000 0.500000 0.023810 1.0 
0.500000 0.500000 0.047619 1.0 
0.500000 0.500000 0.071429 1.0 
0.500000 0.500000 0.095238 1.0 
0.500000 0.500000 0.119048 1.0 
0.500000 0.500000 0.142857 1.0 
0.500000 0.500000 0.166667 1.0 
0.500000 0.500000 0.190476 1.0 
0.500000 0.500000 0.214286 1.0 
0.500000 0.500000 0.238095 1.0 
0.500000 0.500000 0.261905 1.0 
0.500000 0.500000 0.285714 1.0 
0.500000 0.500000 0.309524 1.0 
0.500000 0.500000 0.333333 1.0 
0.500000 0.500000 0.357143 1.0 
0.500000 0.500000 0.380952 1.0 
0.500000 0.500000 0.404762 1.0 
0.500000 0.500000 0.428571 1.0 
0.500000 0.500000 0.452381 1.0 
0.500000 0.500000 0.476190 1.0 
0.500000 0.500000 0.500000 1.0 
