Mn  F                                   
   1.00000000000000     
     4.8524202223749047    0.0000000000000000    0.0000000000000000
     0.0000000000000000    4.8524202223749047    0.0000000000000000
     0.0000000000000000    0.0000000000000000    3.2889566720086632
   Mn   F 
     2     4
Direct
  0.5000000000000000  0.5000000000000000  0.5000000000000000
  0.0000000000000000  0.0000000000000000  0.0000000000000000
  0.1961633115163153  0.8038366884836847  0.5000000000000000
  0.8038366884836847  0.1961633115163153  0.5000000000000000
  0.3038366884836847  0.3038366884836847  0.0000000000000000
  0.6961633115163153  0.6961633115163153  0.0000000000000000
 
  0.00000000E+00  0.00000000E+00  0.00000000E+00
  0.00000000E+00  0.00000000E+00  0.00000000E+00
  0.00000000E+00  0.00000000E+00  0.00000000E+00
  0.00000000E+00  0.00000000E+00  0.00000000E+00
  0.00000000E+00  0.00000000E+00  0.00000000E+00
  0.00000000E+00  0.00000000E+00  0.00000000E+00
