Mn  F                                   
   1.00000000000000     
     4.8502445889472101    0.0000000000000000    0.0000000000000000
    -0.0000000000000000    4.8502445889472101    0.0000000000000000
     0.0000000000000000    0.0000000000000000    3.2865180254026272
   Mn   F 
     2     4
Direct
  0.5000000000000000  0.5000000000000000  0.5000000000000000
 -0.0000000000000000  0.0000000000000000  0.0000000000000000
  0.1960991726229450  0.8039008273770549  0.5000000000000000
  0.8039008273770549  0.1960991726229450  0.5000000000000000
  0.3039008273770549  0.3039008273770549 -0.0000000000000000
  0.6960991726229451  0.6960991726229451  0.0000000000000000
 
  0.00000000E+00  0.00000000E+00  0.00000000E+00
  0.00000000E+00  0.00000000E+00  0.00000000E+00
  0.00000000E+00  0.00000000E+00  0.00000000E+00
  0.00000000E+00  0.00000000E+00  0.00000000E+00
  0.00000000E+00  0.00000000E+00  0.00000000E+00
  0.00000000E+00  0.00000000E+00  0.00000000E+00
