Mn  F                                   
   1.00000000000000     
     4.8494215073901001    0.0000000000000000    0.0000000000000000
     0.0000000000000000    4.8494215073901001    0.0000000000000000
     0.0000000000000000    0.0000000000000000    3.2858077921446549
   Mn   F 
     2     4
Direct
  0.5000000000000000  0.5000000000000000  0.5000000000000000
  0.0000000000000000  0.0000000000000000  0.0000000000000000
  0.1961086243744532  0.8038913756255468  0.5000000000000000
  0.8038913756255468  0.1961086243744532  0.5000000000000000
  0.3038913756255468  0.3038913756255468  0.0000000000000000
  0.6961086243744532  0.6961086243744532  0.0000000000000000
 
  0.00000000E+00  0.00000000E+00  0.00000000E+00
  0.00000000E+00  0.00000000E+00  0.00000000E+00
  0.00000000E+00  0.00000000E+00  0.00000000E+00
  0.00000000E+00  0.00000000E+00  0.00000000E+00
  0.00000000E+00  0.00000000E+00  0.00000000E+00
  0.00000000E+00  0.00000000E+00  0.00000000E+00
