Mn  F                                   
   1.00000000000000     
     4.8525685001342698    0.0000000000000000    0.0000000000000000
     0.0000000000000000    4.8525685001342698    0.0000000000000000
     0.0000000000000000    0.0000000000000000    3.2880119348770607
   Mn   F 
     2     4
Direct
  0.5000000000000000  0.5000000000000000  0.5000000000000000
  0.0000000000000000  0.0000000000000000  0.0000000000000000
  0.1960995399270686  0.8039004600729314  0.5000000000000000
  0.8039004600729314  0.1960995399270686  0.5000000000000000
  0.3039004600729314  0.3039004600729314  0.0000000000000000
  0.6960995399270686  0.6960995399270686  0.0000000000000000
 
  0.00000000E+00  0.00000000E+00  0.00000000E+00
  0.00000000E+00  0.00000000E+00  0.00000000E+00
  0.00000000E+00  0.00000000E+00  0.00000000E+00
  0.00000000E+00  0.00000000E+00  0.00000000E+00
  0.00000000E+00  0.00000000E+00  0.00000000E+00
  0.00000000E+00  0.00000000E+00  0.00000000E+00
