Mn  F                                   
   1.00000000000000     
     4.9179918746350442   -0.0000000000000000    0.0000000000000000
    -0.0000000000000000    4.9179918746350442    0.0000000000000000
     0.0000000000000000    0.0000000000000000    3.1858732897013691
   Mn   F 
     2     4
Direct
  0.5000000000000000  0.5000000000000000  0.5000000000000000
  0.0000000000000000 -0.0000000000000000  0.0000000000000000
  0.1975077379852987  0.8024922620147015  0.5000000000000000
  0.8024922620147015  0.1975077379852987  0.5000000000000000
  0.3024922620147013  0.3024922620147013 -0.0000000000000000
  0.6975077379852985  0.6975077379852985  0.0000000000000000
 
  0.00000000E+00  0.00000000E+00  0.00000000E+00
  0.00000000E+00  0.00000000E+00  0.00000000E+00
  0.00000000E+00  0.00000000E+00  0.00000000E+00
  0.00000000E+00  0.00000000E+00  0.00000000E+00
  0.00000000E+00  0.00000000E+00  0.00000000E+00
  0.00000000E+00  0.00000000E+00  0.00000000E+00
