Mn  F                                   
   1.00000000000000     
     4.8682153325434916   -0.0000000000000000    0.0000000000000000
    -0.0000000000000000    4.8682153325434916    0.0000000000000000
     0.0000000000000000    0.0000000000000000    3.1368758956703342
   Mn   F 
     2     4
Direct
  0.5000000000000000  0.5000000000000000  0.5000000000000000
  0.0000000000000000  0.0000000000000000 -0.0000000000000000
  0.1979839909171247  0.8020160090828754  0.5000000000000000
  0.8020160090828754  0.1979839909171247  0.5000000000000000
  0.3020160090828753  0.3020160090828753  0.0000000000000000
  0.6979839909171246  0.6979839909171246 -0.0000000000000000
 
  0.00000000E+00  0.00000000E+00  0.00000000E+00
  0.00000000E+00  0.00000000E+00  0.00000000E+00
  0.00000000E+00  0.00000000E+00  0.00000000E+00
  0.00000000E+00  0.00000000E+00  0.00000000E+00
  0.00000000E+00  0.00000000E+00  0.00000000E+00
  0.00000000E+00  0.00000000E+00  0.00000000E+00
