Mn  F                                   
   1.00000000000000     
     4.7959042861066612    0.0000000000000000    0.0000000000000000
     0.0000000000000000    4.7959042861066612    0.0000000000000000
     0.0000000000000000    0.0000000000000000    3.2478830337945261
   Mn   F 
     2     4
Direct
  0.5000000000000000  0.5000000000000000  0.5000000000000000
  0.0000000000000000  0.0000000000000000  0.0000000000000000
  0.1959314520716546  0.8040685479283454  0.5000000000000000
  0.8040685479283454  0.1959314520716546  0.5000000000000000
  0.3040685479283454  0.3040685479283454  0.0000000000000000
  0.6959314520716546  0.6959314520716546  0.0000000000000000
 
  0.00000000E+00  0.00000000E+00  0.00000000E+00
  0.00000000E+00  0.00000000E+00  0.00000000E+00
  0.00000000E+00  0.00000000E+00  0.00000000E+00
  0.00000000E+00  0.00000000E+00  0.00000000E+00
  0.00000000E+00  0.00000000E+00  0.00000000E+00
  0.00000000E+00  0.00000000E+00  0.00000000E+00
