Mn  F                                   
   1.00000000000000     
     4.7709219711987281   -0.0000000000000000    0.0000000000000000
    -0.0000000000000000    4.7709219711987281    0.0000000000000000
     0.0000000000000000    0.0000000000000000    3.2517897644160034
   Mn   F 
     2     4
Direct
  0.5000000000000000  0.5000000000000000  0.5000000000000000
  0.0000000000000000  0.0000000000000000  0.0000000000000000
  0.1961561627535837  0.8038438372464164  0.5000000000000000
  0.8038438372464164  0.1961561627535837  0.5000000000000000
  0.3038438372464162  0.3038438372464162  0.0000000000000000
  0.6961561627535836  0.6961561627535836 -0.0000000000000000
 
  0.00000000E+00  0.00000000E+00  0.00000000E+00
  0.00000000E+00  0.00000000E+00  0.00000000E+00
  0.00000000E+00  0.00000000E+00  0.00000000E+00
  0.00000000E+00  0.00000000E+00  0.00000000E+00
  0.00000000E+00  0.00000000E+00  0.00000000E+00
  0.00000000E+00  0.00000000E+00  0.00000000E+00
