KPOINTS created by Atomic Simulation Environment
0
Monkhorst-Pack
5 5 8 
0 0 0
