Mn  F                                   
   1.00000000000000     
     4.8829102516309266   -0.0000000000000000    0.0000000000000000
    -0.0000000000000000    4.8829102516309266    0.0000000000000000
     0.0000000000000000    0.0000000000000000    3.3020039203133931
   Mn   F 
     2     4
Direct
  0.5000000000000000  0.5000000000000000  0.5000000000000000
  0.0000000000000000  0.0000000000000000  0.0000000000000000
  0.1954654763677846  0.8045345236322154  0.5000000000000000
  0.8045345236322154  0.1954654763677846  0.5000000000000000
  0.3045345236322154  0.3045345236322154 -0.0000000000000000
  0.6954654763677846  0.6954654763677846  0.0000000000000000
 
  0.00000000E+00  0.00000000E+00  0.00000000E+00
  0.00000000E+00  0.00000000E+00  0.00000000E+00
  0.00000000E+00  0.00000000E+00  0.00000000E+00
  0.00000000E+00  0.00000000E+00  0.00000000E+00
  0.00000000E+00  0.00000000E+00  0.00000000E+00
  0.00000000E+00  0.00000000E+00  0.00000000E+00
