Mn  F                                   
   1.00000000000000     
     4.8002092884734431    0.0000000000000000    0.0000000000000000
     0.0000000000000000    4.8002092884734431    0.0000000000000000
     0.0000000000000000    0.0000000000000000    3.2502206263654312
   Mn   F 
     2     4
Direct
  0.5000000000000000  0.5000000000000000  0.5000000000000000
 -0.0000000000000000 -0.0000000000000000 -0.0000000000000000
  0.1958699684428585  0.8041300315571415  0.5000000000000000
  0.8041300315571415  0.1958699684428585  0.5000000000000000
  0.3041300315571416  0.3041300315571416  0.0000000000000000
  0.6958699684428585  0.6958699684428585 -0.0000000000000000
 
  0.00000000E+00  0.00000000E+00  0.00000000E+00
  0.00000000E+00  0.00000000E+00  0.00000000E+00
  0.00000000E+00  0.00000000E+00  0.00000000E+00
  0.00000000E+00  0.00000000E+00  0.00000000E+00
  0.00000000E+00  0.00000000E+00  0.00000000E+00
  0.00000000E+00  0.00000000E+00  0.00000000E+00
