Mn  F                                   
   1.00000000000000     
     4.6931708459825421    0.0000000000000000    0.0000000000000000
     0.0000000000000000    4.6931708459825421    0.0000000000000000
     0.0000000000000000    0.0000000000000000    3.2053865386924514
   Mn   F 
     2     4
Direct
  0.5000000000000000  0.5000000000000000  0.5000000000000000
  0.0000000000000000 -0.0000000000000000  0.0000000000000000
  0.1963077644033203  0.8036922355966797  0.5000000000000000
  0.8036922355966797  0.1963077644033203  0.5000000000000000
  0.3036922355966797  0.3036922355966797  0.0000000000000000
  0.6963077644033203  0.6963077644033203 -0.0000000000000000
 
  0.00000000E+00  0.00000000E+00  0.00000000E+00
  0.00000000E+00  0.00000000E+00  0.00000000E+00
  0.00000000E+00  0.00000000E+00  0.00000000E+00
  0.00000000E+00  0.00000000E+00  0.00000000E+00
  0.00000000E+00  0.00000000E+00  0.00000000E+00
  0.00000000E+00  0.00000000E+00  0.00000000E+00
