Mn  F                                   
   1.00000000000000     
     4.7303775970616693    0.0000000000000000    0.0000000000000000
     0.0000000000000000    4.7303775970616693    0.0000000000000000
     0.0000000000000000    0.0000000000000000    3.2462933507365990
   Mn   F 
     2     4
Direct
  0.5000000000000000  0.5000000000000000  0.5000000000000000
  0.0000000000000000  0.0000000000000000  0.0000000000000000
  0.1959881409958584  0.8040118590041416  0.5000000000000000
  0.8040118590041416  0.1959881409958584  0.5000000000000000
  0.3040118590041416  0.3040118590041416  0.0000000000000000
  0.6959881409958584  0.6959881409958584  0.0000000000000000
 
  0.00000000E+00  0.00000000E+00  0.00000000E+00
  0.00000000E+00  0.00000000E+00  0.00000000E+00
  0.00000000E+00  0.00000000E+00  0.00000000E+00
  0.00000000E+00  0.00000000E+00  0.00000000E+00
  0.00000000E+00  0.00000000E+00  0.00000000E+00
  0.00000000E+00  0.00000000E+00  0.00000000E+00
