Mn  F                                   
   1.00000000000000     
     4.7979673837588015    0.0000000000000000    0.0000000000000000
     0.0000000000000000    4.7979673837588015    0.0000000000000000
     0.0000000000000000    0.0000000000000000    3.2492661311731053
   Mn   F 
     2     4
Direct
  0.5000000000000000  0.5000000000000000  0.5000000000000000
  0.0000000000000000  0.0000000000000000  0.0000000000000000
  0.1959042663608344  0.8040957336391656  0.5000000000000000
  0.8040957336391656  0.1959042663608344  0.5000000000000000
  0.3040957336391656  0.3040957336391656  0.0000000000000000
  0.6959042663608344  0.6959042663608344  0.0000000000000000
 
  0.00000000E+00  0.00000000E+00  0.00000000E+00
  0.00000000E+00  0.00000000E+00  0.00000000E+00
  0.00000000E+00  0.00000000E+00  0.00000000E+00
  0.00000000E+00  0.00000000E+00  0.00000000E+00
  0.00000000E+00  0.00000000E+00  0.00000000E+00
  0.00000000E+00  0.00000000E+00  0.00000000E+00
