Mn  F                                   
   1.00000000000000     
     4.8574506025340725    0.0000000000000000    0.0000000000000000
     0.0000000000000000    4.8574506025340725    0.0000000000000000
     0.0000000000000000    0.0000000000000000    3.2904831782151671
   Mn   F 
     2     4
Direct
  0.5000000000000000  0.5000000000000000  0.5000000000000000
  0.0000000000000000  0.0000000000000000  0.0000000000000000
  0.1961048867994339  0.8038951132005658  0.5000000000000000
  0.8038951132005658  0.1961048867994339  0.5000000000000000
  0.3038951132005661  0.3038951132005661 -0.0000000000000000
  0.6961048867994342  0.6961048867994342  0.0000000000000000
 
  0.00000000E+00  0.00000000E+00  0.00000000E+00
  0.00000000E+00  0.00000000E+00  0.00000000E+00
  0.00000000E+00  0.00000000E+00  0.00000000E+00
  0.00000000E+00  0.00000000E+00  0.00000000E+00
  0.00000000E+00  0.00000000E+00  0.00000000E+00
  0.00000000E+00  0.00000000E+00  0.00000000E+00
