Mn  F                                   
   1.00000000000000     
     4.8576179901716241    0.0000000000000000    0.0000000000000000
     0.0000000000000000    4.8576179901716241    0.0000000000000000
     0.0000000000000000    0.0000000000000000    3.2891785280675245
   Mn   F 
     2     4
Direct
  0.5000000000000000  0.5000000000000000  0.5000000000000000
  0.0000000000000000  0.0000000000000000  0.0000000000000000
  0.1960899500462858  0.8039100499537142  0.5000000000000000
  0.8039100499537142  0.1960899500462858  0.5000000000000000
  0.3039100499537142  0.3039100499537142  0.0000000000000000
  0.6960899500462858  0.6960899500462858  0.0000000000000000
 
  0.00000000E+00  0.00000000E+00  0.00000000E+00
  0.00000000E+00  0.00000000E+00  0.00000000E+00
  0.00000000E+00  0.00000000E+00  0.00000000E+00
  0.00000000E+00  0.00000000E+00  0.00000000E+00
  0.00000000E+00  0.00000000E+00  0.00000000E+00
  0.00000000E+00  0.00000000E+00  0.00000000E+00
