Mn  F                                   
   1.00000000000000     
     4.8551232423703858    0.0000000000000000    0.0000000000000000
     0.0000000000000000    4.8551232423703858    0.0000000000000000
     0.0000000000000000    0.0000000000000000    3.2894845857313233
   Mn   F 
     2     4
Direct
  0.5000000000000000  0.5000000000000000  0.5000000000000000
  0.0000000000000000  0.0000000000000000  0.0000000000000000
  0.1961033805352841  0.8038966194647159  0.5000000000000000
  0.8038966194647159  0.1961033805352841  0.5000000000000000
  0.3038966194647159  0.3038966194647159  0.0000000000000000
  0.6961033805352841  0.6961033805352841  0.0000000000000000
 
  0.00000000E+00  0.00000000E+00  0.00000000E+00
  0.00000000E+00  0.00000000E+00  0.00000000E+00
  0.00000000E+00  0.00000000E+00  0.00000000E+00
  0.00000000E+00  0.00000000E+00  0.00000000E+00
  0.00000000E+00  0.00000000E+00  0.00000000E+00
  0.00000000E+00  0.00000000E+00  0.00000000E+00
