Mn  F                                   
   1.00000000000000     
     4.8907553463387083    0.0000000000000000    0.0000000000000000
     0.0000000000000000    4.8907553463387083    0.0000000000000000
     0.0000000000000000    0.0000000000000000    3.3045770468979057
   Mn   F 
     2     4
Direct
  0.5000000000000000  0.5000000000000000  0.5000000000000000
  0.0000000000000000  0.0000000000000000  0.0000000000000000
  0.1953729267831008  0.8046270732168992  0.5000000000000000
  0.8046270732168992  0.1953729267831008  0.5000000000000000
  0.3046270732168992  0.3046270732168992  0.0000000000000000
  0.6953729267831008  0.6953729267831008  0.0000000000000000
 
  0.00000000E+00  0.00000000E+00  0.00000000E+00
  0.00000000E+00  0.00000000E+00  0.00000000E+00
  0.00000000E+00  0.00000000E+00  0.00000000E+00
  0.00000000E+00  0.00000000E+00  0.00000000E+00
  0.00000000E+00  0.00000000E+00  0.00000000E+00
  0.00000000E+00  0.00000000E+00  0.00000000E+00
