Mn  F                                   
   1.00000000000000     
     4.8880628044036616   -0.0000000000000000    0.0000000000000000
    -0.0000000000000000    4.8880628044036616    0.0000000000000000
     0.0000000000000000    0.0000000000000000    3.3032055310638091
   Mn   F 
     2     4
Direct
  0.5000000000000000  0.5000000000000000  0.5000000000000000
 -0.0000000000000000  0.0000000000000000  0.0000000000000000
  0.1953865858905021  0.8046134141094979  0.5000000000000000
  0.8046134141094979  0.1953865858905021  0.5000000000000000
  0.3046134141094979  0.3046134141094979 -0.0000000000000000
  0.6953865858905021  0.6953865858905021  0.0000000000000000
 
  0.00000000E+00  0.00000000E+00  0.00000000E+00
  0.00000000E+00  0.00000000E+00  0.00000000E+00
  0.00000000E+00  0.00000000E+00  0.00000000E+00
  0.00000000E+00  0.00000000E+00  0.00000000E+00
  0.00000000E+00  0.00000000E+00  0.00000000E+00
  0.00000000E+00  0.00000000E+00  0.00000000E+00
