Mn  F                                   
   1.00000000000000     
     4.7050362091990010    0.0000000000000000    0.0000000000000000
     0.0000000000000000    4.7050362091990010    0.0000000000000000
     0.0000000000000000    0.0000000000000000    3.2201603165659600
   Mn   F 
     2     4
Direct
  0.5000000000000000  0.5000000000000000  0.5000000000000000
  0.0000000000000000  0.0000000000000000  0.0000000000000000
  0.1969605199036693  0.8030394800963307  0.5000000000000000
  0.8030394800963307  0.1969605199036693  0.5000000000000000
  0.3030394800963307  0.3030394800963307  0.0000000000000000
  0.6969605199036693  0.6969605199036693  0.0000000000000000
 
  0.00000000E+00  0.00000000E+00  0.00000000E+00
  0.00000000E+00  0.00000000E+00  0.00000000E+00
  0.00000000E+00  0.00000000E+00  0.00000000E+00
  0.00000000E+00  0.00000000E+00  0.00000000E+00
  0.00000000E+00  0.00000000E+00  0.00000000E+00
  0.00000000E+00  0.00000000E+00  0.00000000E+00
