Mn  F                                   
   1.00000000000000     
     4.8506123387713105    0.0000000000000000    0.0000000000000000
     0.0000000000000000    4.8506123387713105    0.0000000000000000
     0.0000000000000000    0.0000000000000000    3.2865359983284077
   Mn   F 
     2     4
Direct
  0.5000000000000000  0.5000000000000000  0.5000000000000000
  0.0000000000000000  0.0000000000000000  0.0000000000000000
  0.1961054844640415  0.8038945155359585  0.5000000000000000
  0.8038945155359585  0.1961054844640415  0.5000000000000000
  0.3038945155359585  0.3038945155359585  0.0000000000000000
  0.6961054844640415  0.6961054844640415  0.0000000000000000
 
  0.00000000E+00  0.00000000E+00  0.00000000E+00
  0.00000000E+00  0.00000000E+00  0.00000000E+00
  0.00000000E+00  0.00000000E+00  0.00000000E+00
  0.00000000E+00  0.00000000E+00  0.00000000E+00
  0.00000000E+00  0.00000000E+00  0.00000000E+00
  0.00000000E+00  0.00000000E+00  0.00000000E+00
