Mn  F                                   
   1.00000000000000     
     4.8813797172995850    0.0000000000000000    0.0000000000000000
     0.0000000000000000    4.8813797172995850    0.0000000000000000
     0.0000000000000000    0.0000000000000000    3.2994262055403083
   Mn   F 
     2     4
Direct
  0.5000000000000000  0.5000000000000000  0.5000000000000000
  0.0000000000000000 -0.0000000000000000  0.0000000000000000
  0.1954241917081325  0.8045758082918675  0.5000000000000000
  0.8045758082918675  0.1954241917081325  0.5000000000000000
  0.3045758082918675  0.3045758082918675 -0.0000000000000000
  0.6954241917081325  0.6954241917081325  0.0000000000000000
 
  0.00000000E+00  0.00000000E+00  0.00000000E+00
  0.00000000E+00  0.00000000E+00  0.00000000E+00
  0.00000000E+00  0.00000000E+00  0.00000000E+00
  0.00000000E+00  0.00000000E+00  0.00000000E+00
  0.00000000E+00  0.00000000E+00  0.00000000E+00
  0.00000000E+00  0.00000000E+00  0.00000000E+00
