Mn  F                                   
   1.00000000000000     
     4.8831441434228182    0.0000000000000000    0.0000000000000000
     0.0000000000000000    4.8831441434228182    0.0000000000000000
     0.0000000000000000    0.0000000000000000    3.3007976771174738
   Mn   F 
     2     4
Direct
  0.5000000000000000  0.5000000000000000  0.5000000000000000
  0.0000000000000000  0.0000000000000000  0.0000000000000000
  0.1954439396064487  0.8045560603935513  0.5000000000000000
  0.8045560603935513  0.1954439396064487  0.5000000000000000
  0.3045560603935513  0.3045560603935513  0.0000000000000000
  0.6954439396064487  0.6954439396064487  0.0000000000000000
 
  0.00000000E+00  0.00000000E+00  0.00000000E+00
  0.00000000E+00  0.00000000E+00  0.00000000E+00
  0.00000000E+00  0.00000000E+00  0.00000000E+00
  0.00000000E+00  0.00000000E+00  0.00000000E+00
  0.00000000E+00  0.00000000E+00  0.00000000E+00
  0.00000000E+00  0.00000000E+00  0.00000000E+00
